Version identifier: 22.1.1.0 | 2022-11-28 | 9160aff4d
CPXPARAM_ClockType                               1
CPXPARAM_Read_DataCheck                          1
CPXPARAM_Threads                                 1
CPXPARAM_TimeLimit                               7200
CPXPARAM_MIP_Tolerances_AbsMIPGap                0
CPXPARAM_MIP_Tolerances_MIPGap                   0
CPXPARAM_MIP_Tolerances_Integrality              0
Tried aggregator 6 times.
MIP Presolve eliminated 7038 rows and 1726 columns.
MIP Presolve modified 958 coefficients.
Aggregator did 1690 substitutions.
Reduced MIP has 637751 rows, 234824 columns, and 2038705 nonzeros.
Reduced MIP has 234824 binaries, 0 generals, 0 SOSs, and 0 indicators.
Presolve time = 8.48 sec. (4520.11 ticks)
Found incumbent of value 14503.000000 after 15.16 sec. (8119.40 ticks)
Probing time = 0.50 sec. (145.78 ticks)
Tried aggregator 1 time.
Detecting symmetries...
Reduced MIP has 637751 rows, 234824 columns, and 2038705 nonzeros.
Reduced MIP has 234824 binaries, 0 generals, 0 SOSs, and 0 indicators.
Presolve time = 7.23 sec. (3874.00 ticks)
Probing time = 0.41 sec. (139.03 ticks)
Clique table members: 550650.
MIP emphasis: balance optimality and feasibility.
MIP search method: dynamic search.
Parallel mode: none, using 1 thread.
Root relaxation solution time = 113.00 sec. (26617.72 ticks)

        Nodes                                         Cuts/
   Node  Left     Objective  IInf  Best Integer    Best Bound    ItCnt     Gap

*     0+    0                        14503.0000    47217.0000           225.57%
      0     0    47217.0000 61576    14503.0000    47217.0000    50557  225.57%
      0     0    46696.5000 62768    14503.0000    Cuts: 2725    70270  221.98%
      0     0    46009.2500 62746    14503.0000    Cuts: 3131    84045  217.24%
      0     0    45416.3750 63561    14503.0000    Cuts: 3270    94212  213.15%
      0     0    44852.6583 67561    14503.0000    Cuts: 4053   107445  209.26%
      0     0    44351.2226 68240    14503.0000    Cuts: 3518   121533  205.81%
      0     0    43922.7149 71859    14503.0000    Cuts: 4380   133337  202.85%
*     0+    0                        14506.0000    43922.7149           202.79%
      0     0        cutoff          14506.0000    43922.7149   133337  202.79%
      0     0    43312.0918 71442    14506.0000    Cuts: 3680   156354  198.58%
      0     0    43024.0102 71436    14506.0000    Cuts: 4104   165454  196.59%
      0     0    42899.7096 72687    14506.0000    Cuts: 6087   179264  195.74%
*     0+    0                        14509.0000    42899.7096           195.68%
      0     0        cutoff          14509.0000    42899.7096   179264  195.68%
      0     0    42657.8460 74851    14509.0000    Cuts: 5915   229825  194.01%

Clique cuts applied:  1515
Implied bound cuts applied:  1639
Zero-half cuts applied:  6041
Gomory fractional cuts applied:  2

Root node processing (before b&c):
  Real time             = 7200.35 sec. (1906344.25 ticks)
Sequential b&c:
  Real time             =    0.00 sec. (0.00 ticks)
                          ------------
Total (root+branch&cut) = 7200.35 sec. (1906344.25 ticks)
Solution is feasible.

---------------------
@@@ MIP_time_limit_feasible
>>> Benchmark mc2024_track1_139.cnf k 2 OPT 14509 TimeCost 9629.215440034866 TimeSolve 7232.601668596268 TimeRead 0.43660664558410645 TimeTrans 2396.1771647930145
